<instance format="XCSP3" type="COP">
  <variables>
    <array id="s" note="Start time of operation j for job i" size="[15][15]"> 0..1015 </array>
    <array id="e" note="End time of last operation of job i" size="[15]"> 0..1015 </array>
    <array id="d" note="Duration of operation j for job i" size="[15][15]">
      <domain for="d[0][]"> 3 9 12 21 30 34 46 52..54 59 68 70 82 </domain>
      <domain for="d[1][]"> 3 7 24 29 31 39 49 50 63 68 69 71 92 96 99 </domain>
      <domain for="d[2][]"> 1 8 29 55 58 59 63 74 76 77 86 88 </domain>
      <domain for="d[3][]"> 4 16 21 33 39 41 46 51 52 57 61..63 88 </domain>
      <domain for="d[4][]"> 7 8 14 30 48 56 75 76 79 83 85 99 </domain>
      <domain for="d[5][]"> 1 11 15 21 31 32 42 56 57 60..62 76 83 87 </domain>
      <domain for="d[6][]"> 3 17 18 24 35 36 49 51 58 59 73 81 94 95 </domain>
      <domain for="d[7][]"> 5 6 13 24 32 45 49 50 62 70 74 84 99 </domain>
      <domain for="d[8][]"> 11 12 22 30 33 34 41 42 51 66 76 79 83 99 </domain>
      <domain for="d[9][]"> 3 10 21 25 30 33 47 61 70 75 85 87 98 </domain>
      <domain for="d[10][]"> 4 19 25 28 30 35 38 41 48 57 70 82 92 95 </domain>
      <domain for="d[11][]"> 3 8 18 24 28 55 58 62 81 82 84 85 92 95 </domain>
      <domain for="d[12][]"> 20 22 25..28 37 43 59 61 63 92 </domain>
      <domain for="d[13][]"> 3 6 12 23 24 32 33 35 40 57 58 61 77 92 96 </domain>
      <domain for="d[14][]"> 2 6 8 14 28 45 46 53 60 61 63 68 82 95 99 </domain>
    </array>
    <array id="w" note="Which machine for operation j of job i" size="[15][15]"> 0..14 </array>
    <array id="sd" note="Start (dual) time of job i, machine k" size="[15][15]"> 0..1015 </array>
  </variables>
  <constraints>
    <group>
      <intension> eq(%0,add(%1,%2)) </intension>
      <args> e[0] s[0][14] d[0][14] </args>
      <args> e[1] s[1][14] d[1][14] </args>
      <args> e[2] s[2][14] d[2][14] </args>
      <args> e[3] s[3][14] d[3][14] </args>
      <args> e[4] s[4][14] d[4][14] </args>
      <args> e[5] s[5][14] d[5][14] </args>
      <args> e[6] s[6][14] d[6][14] </args>
      <args> e[7] s[7][14] d[7][14] </args>
      <args> e[8] s[8][14] d[8][14] </args>
      <args> e[9] s[9][14] d[9][14] </args>
      <args> e[10] s[10][14] d[10][14] </args>
      <args> e[11] s[11][14] d[11][14] </args>
      <args> e[12] s[12][14] d[12][14] </args>
      <args> e[13] s[13][14] d[13][14] </args>
      <args> e[14] s[14][14] d[14][14] </args>
    </group>
    <group>
      <allDifferent> %... </allDifferent>
      <args> w[0][] </args>
      <args> w[1][] </args>
      <args> w[2][] </args>
      <args> w[3][] </args>
      <args> w[4][] </args>
      <args> w[5][] </args>
      <args> w[6][] </args>
      <args> w[7][] </args>
      <args> w[8][] </args>
      <args> w[9][] </args>
      <args> w[10][] </args>
      <args> w[11][] </args>
      <args> w[12][] </args>
      <args> w[13][] </args>
      <args> w[14][] </args>
    </group>
    <block>
      <group>
        <extension>
          <list> %0 %1 </list>
          <supports> (0,53)(1,59)(2,68)(3,53)(4,34)(5,21)(6,52)(7,9)(8,12)(9,30)(10,46)(11,82)(12,54)(13,3)(14,70) </supports>
        </extension>
        <args> w[0][0] d[0][0] </args>
        <args> w[0][1] d[0][1] </args>
        <args> w[0][2] d[0][2] </args>
        <args> w[0][3] d[0][3] </args>
        <args> w[0][4] d[0][4] </args>
        <args> w[0][5] d[0][5] </args>
        <args> w[0][6] d[0][6] </args>
        <args> w[0][7] d[0][7] </args>
        <args> w[0][8] d[0][8] </args>
        <args> w[0][9] d[0][9] </args>
        <args> w[0][10] d[0][10] </args>
        <args> w[0][11] d[0][11] </args>
        <args> w[0][12] d[0][12] </args>
        <args> w[0][13] d[0][13] </args>
        <args> w[0][14] d[0][14] </args>
      </group>
      <group>
        <extension>
          <list> %0 %1 </list>
          <supports> (0,68)(1,71)(2,96)(3,7)(4,24)(5,49)(6,69)(7,92)(8,50)(9,31)(10,29)(11,99)(12,63)(13,39)(14,3) </supports>
        </extension>
        <args> w[1][0] d[1][0] </args>
        <args> w[1][1] d[1][1] </args>
        <args> w[1][2] d[1][2] </args>
        <args> w[1][3] d[1][3] </args>
        <args> w[1][4] d[1][4] </args>
        <args> w[1][5] d[1][5] </args>
        <args> w[1][6] d[1][6] </args>
        <args> w[1][7] d[1][7] </args>
        <args> w[1][8] d[1][8] </args>
        <args> w[1][9] d[1][9] </args>
        <args> w[1][10] d[1][10] </args>
        <args> w[1][11] d[1][11] </args>
        <args> w[1][12] d[1][12] </args>
        <args> w[1][13] d[1][13] </args>
        <args> w[1][14] d[1][14] </args>
      </group>
      <group>
        <extension>
          <list> %0 %1 </list>
          <supports> (0,63)(1,1)(2,59)(3,88)(4,86)(5,58)(6,76)(7,55)(8,76)(9,77)(10,88)(11,55)(12,8)(13,74)(14,29) </supports>
        </extension>
        <args> w[2][0] d[2][0] </args>
        <args> w[2][1] d[2][1] </args>
        <args> w[2][2] d[2][2] </args>
        <args> w[2][3] d[2][3] </args>
        <args> w[2][4] d[2][4] </args>
        <args> w[2][5] d[2][5] </args>
        <args> w[2][6] d[2][6] </args>
        <args> w[2][7] d[2][7] </args>
        <args> w[2][8] d[2][8] </args>
        <args> w[2][9] d[2][9] </args>
        <args> w[2][10] d[2][10] </args>
        <args> w[2][11] d[2][11] </args>
        <args> w[2][12] d[2][12] </args>
        <args> w[2][13] d[2][13] </args>
        <args> w[2][14] d[2][14] </args>
      </group>
      <group>
        <extension>
          <list> %0 %1 </list>
          <supports> (0,62)(1,88)(2,4)(3,52)(4,33)(5,61)(6,57)(7,39)(8,16)(9,46)(10,63)(11,51)(12,41)(13,21)(14,57) </supports>
        </extension>
        <args> w[3][0] d[3][0] </args>
        <args> w[3][1] d[3][1] </args>
        <args> w[3][2] d[3][2] </args>
        <args> w[3][3] d[3][3] </args>
        <args> w[3][4] d[3][4] </args>
        <args> w[3][5] d[3][5] </args>
        <args> w[3][6] d[3][6] </args>
        <args> w[3][7] d[3][7] </args>
        <args> w[3][8] d[3][8] </args>
        <args> w[3][9] d[3][9] </args>
        <args> w[3][10] d[3][10] </args>
        <args> w[3][11] d[3][11] </args>
        <args> w[3][12] d[3][12] </args>
        <args> w[3][13] d[3][13] </args>
        <args> w[3][14] d[3][14] </args>
      </group>
      <group>
        <extension>
          <list> %0 %1 </list>
          <supports> (0,48)(1,99)(2,7)(3,8)(4,83)(5,14)(6,85)(7,30)(8,79)(9,76)(10,30)(11,8)(12,83)(13,56)(14,75) </supports>
        </extension>
        <args> w[4][0] d[4][0] </args>
        <args> w[4][1] d[4][1] </args>
        <args> w[4][2] d[4][2] </args>
        <args> w[4][3] d[4][3] </args>
        <args> w[4][4] d[4][4] </args>
        <args> w[4][5] d[4][5] </args>
        <args> w[4][6] d[4][6] </args>
        <args> w[4][7] d[4][7] </args>
        <args> w[4][8] d[4][8] </args>
        <args> w[4][9] d[4][9] </args>
        <args> w[4][10] d[4][10] </args>
        <args> w[4][11] d[4][11] </args>
        <args> w[4][12] d[4][12] </args>
        <args> w[4][13] d[4][13] </args>
        <args> w[4][14] d[4][14] </args>
      </group>
      <group>
        <extension>
          <list> %0 %1 </list>
          <supports> (0,87)(1,76)(2,83)(3,56)(4,61)(5,21)(6,11)(7,62)(8,42)(9,1)(10,31)(11,15)(12,60)(13,57)(14,32) </supports>
        </extension>
        <args> w[5][0] d[5][0] </args>
        <args> w[5][1] d[5][1] </args>
        <args> w[5][2] d[5][2] </args>
        <args> w[5][3] d[5][3] </args>
        <args> w[5][4] d[5][4] </args>
        <args> w[5][5] d[5][5] </args>
        <args> w[5][6] d[5][6] </args>
        <args> w[5][7] d[5][7] </args>
        <args> w[5][8] d[5][8] </args>
        <args> w[5][9] d[5][9] </args>
        <args> w[5][10] d[5][10] </args>
        <args> w[5][11] d[5][11] </args>
        <args> w[5][12] d[5][12] </args>
        <args> w[5][13] d[5][13] </args>
        <args> w[5][14] d[5][14] </args>
      </group>
      <group>
        <extension>
          <list> %0 %1 </list>
          <supports> (0,73)(1,51)(2,3)(3,59)(4,24)(5,49)(6,35)(7,95)(8,17)(9,17)(10,81)(11,58)(12,94)(13,36)(14,18) </supports>
        </extension>
        <args> w[6][0] d[6][0] </args>
        <args> w[6][1] d[6][1] </args>
        <args> w[6][2] d[6][2] </args>
        <args> w[6][3] d[6][3] </args>
        <args> w[6][4] d[6][4] </args>
        <args> w[6][5] d[6][5] </args>
        <args> w[6][6] d[6][6] </args>
        <args> w[6][7] d[6][7] </args>
        <args> w[6][8] d[6][8] </args>
        <args> w[6][9] d[6][9] </args>
        <args> w[6][10] d[6][10] </args>
        <args> w[6][11] d[6][11] </args>
        <args> w[6][12] d[6][12] </args>
        <args> w[6][13] d[6][13] </args>
        <args> w[6][14] d[6][14] </args>
      </group>
      <group>
        <extension>
          <list> %0 %1 </list>
          <supports> (0,24)(1,45)(2,74)(3,70)(4,49)(5,6)(6,62)(7,84)(8,5)(9,6)(10,99)(11,50)(12,13)(13,32)(14,50) </supports>
        </extension>
        <args> w[7][0] d[7][0] </args>
        <args> w[7][1] d[7][1] </args>
        <args> w[7][2] d[7][2] </args>
        <args> w[7][3] d[7][3] </args>
        <args> w[7][4] d[7][4] </args>
        <args> w[7][5] d[7][5] </args>
        <args> w[7][6] d[7][6] </args>
        <args> w[7][7] d[7][7] </args>
        <args> w[7][8] d[7][8] </args>
        <args> w[7][9] d[7][9] </args>
        <args> w[7][10] d[7][10] </args>
        <args> w[7][11] d[7][11] </args>
        <args> w[7][12] d[7][12] </args>
        <args> w[7][13] d[7][13] </args>
        <args> w[7][14] d[7][14] </args>
      </group>
      <group>
        <extension>
          <list> %0 %1 </list>
          <supports> (0,79)(1,51)(2,83)(3,51)(4,99)(5,12)(6,66)(7,42)(8,76)(9,22)(10,34)(11,11)(12,33)(13,30)(14,41) </supports>
        </extension>
        <args> w[8][0] d[8][0] </args>
        <args> w[8][1] d[8][1] </args>
        <args> w[8][2] d[8][2] </args>
        <args> w[8][3] d[8][3] </args>
        <args> w[8][4] d[8][4] </args>
        <args> w[8][5] d[8][5] </args>
        <args> w[8][6] d[8][6] </args>
        <args> w[8][7] d[8][7] </args>
        <args> w[8][8] d[8][8] </args>
        <args> w[8][9] d[8][9] </args>
        <args> w[8][10] d[8][10] </args>
        <args> w[8][11] d[8][11] </args>
        <args> w[8][12] d[8][12] </args>
        <args> w[8][13] d[8][13] </args>
        <args> w[8][14] d[8][14] </args>
      </group>
      <group>
        <extension>
          <list> %0 %1 </list>
          <supports> (0,3)(1,47)(2,75)(3,98)(4,87)(5,33)(6,10)(7,70)(8,25)(9,30)(10,61)(11,85)(12,33)(13,21)(14,98) </supports>
        </extension>
        <args> w[9][0] d[9][0] </args>
        <args> w[9][1] d[9][1] </args>
        <args> w[9][2] d[9][2] </args>
        <args> w[9][3] d[9][3] </args>
        <args> w[9][4] d[9][4] </args>
        <args> w[9][5] d[9][5] </args>
        <args> w[9][6] d[9][6] </args>
        <args> w[9][7] d[9][7] </args>
        <args> w[9][8] d[9][8] </args>
        <args> w[9][9] d[9][9] </args>
        <args> w[9][10] d[9][10] </args>
        <args> w[9][11] d[9][11] </args>
        <args> w[9][12] d[9][12] </args>
        <args> w[9][13] d[9][13] </args>
        <args> w[9][14] d[9][14] </args>
      </group>
      <group>
        <extension>
          <list> %0 %1 </list>
          <supports> (0,57)(1,35)(2,38)(3,25)(4,30)(5,30)(6,82)(7,19)(8,4)(9,48)(10,95)(11,28)(12,70)(13,92)(14,41) </supports>
        </extension>
        <args> w[10][0] d[10][0] </args>
        <args> w[10][1] d[10][1] </args>
        <args> w[10][2] d[10][2] </args>
        <args> w[10][3] d[10][3] </args>
        <args> w[10][4] d[10][4] </args>
        <args> w[10][5] d[10][5] </args>
        <args> w[10][6] d[10][6] </args>
        <args> w[10][7] d[10][7] </args>
        <args> w[10][8] d[10][8] </args>
        <args> w[10][9] d[10][9] </args>
        <args> w[10][10] d[10][10] </args>
        <args> w[10][11] d[10][11] </args>
        <args> w[10][12] d[10][12] </args>
        <args> w[10][13] d[10][13] </args>
        <args> w[10][14] d[10][14] </args>
      </group>
      <group>
        <extension>
          <list> %0 %1 </list>
          <supports> (0,28)(1,92)(2,18)(3,81)(4,3)(5,82)(6,85)(7,8)(8,58)(9,95)(10,62)(11,24)(12,55)(13,84)(14,85) </supports>
        </extension>
        <args> w[11][0] d[11][0] </args>
        <args> w[11][1] d[11][1] </args>
        <args> w[11][2] d[11][2] </args>
        <args> w[11][3] d[11][3] </args>
        <args> w[11][4] d[11][4] </args>
        <args> w[11][5] d[11][5] </args>
        <args> w[11][6] d[11][6] </args>
        <args> w[11][7] d[11][7] </args>
        <args> w[11][8] d[11][8] </args>
        <args> w[11][9] d[11][9] </args>
        <args> w[11][10] d[11][10] </args>
        <args> w[11][11] d[11][11] </args>
        <args> w[11][12] d[11][12] </args>
        <args> w[11][13] d[11][13] </args>
        <args> w[11][14] d[11][14] </args>
      </group>
      <group>
        <extension>
          <list> %0 %1 </list>
          <supports> (0,22)(1,26)(2,61)(3,63)(4,37)(5,20)(6,43)(7,92)(8,20)(9,59)(10,26)(11,28)(12,27)(13,28)(14,25) </supports>
        </extension>
        <args> w[12][0] d[12][0] </args>
        <args> w[12][1] d[12][1] </args>
        <args> w[12][2] d[12][2] </args>
        <args> w[12][3] d[12][3] </args>
        <args> w[12][4] d[12][4] </args>
        <args> w[12][5] d[12][5] </args>
        <args> w[12][6] d[12][6] </args>
        <args> w[12][7] d[12][7] </args>
        <args> w[12][8] d[12][8] </args>
        <args> w[12][9] d[12][9] </args>
        <args> w[12][10] d[12][10] </args>
        <args> w[12][11] d[12][11] </args>
        <args> w[12][12] d[12][12] </args>
        <args> w[12][13] d[12][13] </args>
        <args> w[12][14] d[12][14] </args>
      </group>
      <group>
        <extension>
          <list> %0 %1 </list>
          <supports> (0,32)(1,96)(2,6)(3,92)(4,3)(5,40)(6,12)(7,23)(8,58)(9,33)(10,61)(11,24)(12,77)(13,35)(14,57) </supports>
        </extension>
        <args> w[13][0] d[13][0] </args>
        <args> w[13][1] d[13][1] </args>
        <args> w[13][2] d[13][2] </args>
        <args> w[13][3] d[13][3] </args>
        <args> w[13][4] d[13][4] </args>
        <args> w[13][5] d[13][5] </args>
        <args> w[13][6] d[13][6] </args>
        <args> w[13][7] d[13][7] </args>
        <args> w[13][8] d[13][8] </args>
        <args> w[13][9] d[13][9] </args>
        <args> w[13][10] d[13][10] </args>
        <args> w[13][11] d[13][11] </args>
        <args> w[13][12] d[13][12] </args>
        <args> w[13][13] d[13][13] </args>
        <args> w[13][14] d[13][14] </args>
      </group>
      <group>
        <extension>
          <list> %0 %1 </list>
          <supports> (0,68)(1,46)(2,45)(3,6)(4,8)(5,53)(6,14)(7,60)(8,99)(9,61)(10,28)(11,2)(12,82)(13,63)(14,95) </supports>
        </extension>
        <args> w[14][0] d[14][0] </args>
        <args> w[14][1] d[14][1] </args>
        <args> w[14][2] d[14][2] </args>
        <args> w[14][3] d[14][3] </args>
        <args> w[14][4] d[14][4] </args>
        <args> w[14][5] d[14][5] </args>
        <args> w[14][6] d[14][6] </args>
        <args> w[14][7] d[14][7] </args>
        <args> w[14][8] d[14][8] </args>
        <args> w[14][9] d[14][9] </args>
        <args> w[14][10] d[14][10] </args>
        <args> w[14][11] d[14][11] </args>
        <args> w[14][12] d[14][12] </args>
        <args> w[14][13] d[14][13] </args>
        <args> w[14][14] d[14][14] </args>
      </group>
    </block>
    <group>
      <intension> le(add(%0,%1),%2) </intension>
      <args> s[0][0] d[0][0] s[0][1] </args>
      <args> s[0][1] d[0][1] s[0][2] </args>
      <args> s[0][2] d[0][2] s[0][3] </args>
      <args> s[0][3] d[0][3] s[0][4] </args>
      <args> s[0][4] d[0][4] s[0][5] </args>
      <args> s[0][5] d[0][5] s[0][6] </args>
      <args> s[0][6] d[0][6] s[0][7] </args>
      <args> s[0][7] d[0][7] s[0][8] </args>
      <args> s[0][8] d[0][8] s[0][9] </args>
      <args> s[0][9] d[0][9] s[0][10] </args>
      <args> s[0][10] d[0][10] s[0][11] </args>
      <args> s[0][11] d[0][11] s[0][12] </args>
      <args> s[0][12] d[0][12] s[0][13] </args>
      <args> s[0][13] d[0][13] s[0][14] </args>
      <args> s[1][0] d[1][0] s[1][1] </args>
      <args> s[1][1] d[1][1] s[1][2] </args>
      <args> s[1][2] d[1][2] s[1][3] </args>
      <args> s[1][3] d[1][3] s[1][4] </args>
      <args> s[1][4] d[1][4] s[1][5] </args>
      <args> s[1][5] d[1][5] s[1][6] </args>
      <args> s[1][6] d[1][6] s[1][7] </args>
      <args> s[1][7] d[1][7] s[1][8] </args>
      <args> s[1][8] d[1][8] s[1][9] </args>
      <args> s[1][9] d[1][9] s[1][10] </args>
      <args> s[1][10] d[1][10] s[1][11] </args>
      <args> s[1][11] d[1][11] s[1][12] </args>
      <args> s[1][12] d[1][12] s[1][13] </args>
      <args> s[1][13] d[1][13] s[1][14] </args>
      <args> s[2][0] d[2][0] s[2][1] </args>
      <args> s[2][1] d[2][1] s[2][2] </args>
      <args> s[2][2] d[2][2] s[2][3] </args>
      <args> s[2][3] d[2][3] s[2][4] </args>
      <args> s[2][4] d[2][4] s[2][5] </args>
      <args> s[2][5] d[2][5] s[2][6] </args>
      <args> s[2][6] d[2][6] s[2][7] </args>
      <args> s[2][7] d[2][7] s[2][8] </args>
      <args> s[2][8] d[2][8] s[2][9] </args>
      <args> s[2][9] d[2][9] s[2][10] </args>
      <args> s[2][10] d[2][10] s[2][11] </args>
      <args> s[2][11] d[2][11] s[2][12] </args>
      <args> s[2][12] d[2][12] s[2][13] </args>
      <args> s[2][13] d[2][13] s[2][14] </args>
      <args> s[3][0] d[3][0] s[3][1] </args>
      <args> s[3][1] d[3][1] s[3][2] </args>
      <args> s[3][2] d[3][2] s[3][3] </args>
      <args> s[3][3] d[3][3] s[3][4] </args>
      <args> s[3][4] d[3][4] s[3][5] </args>
      <args> s[3][5] d[3][5] s[3][6] </args>
      <args> s[3][6] d[3][6] s[3][7] </args>
      <args> s[3][7] d[3][7] s[3][8] </args>
      <args> s[3][8] d[3][8] s[3][9] </args>
      <args> s[3][9] d[3][9] s[3][10] </args>
      <args> s[3][10] d[3][10] s[3][11] </args>
      <args> s[3][11] d[3][11] s[3][12] </args>
      <args> s[3][12] d[3][12] s[3][13] </args>
      <args> s[3][13] d[3][13] s[3][14] </args>
      <args> s[4][0] d[4][0] s[4][1] </args>
      <args> s[4][1] d[4][1] s[4][2] </args>
      <args> s[4][2] d[4][2] s[4][3] </args>
      <args> s[4][3] d[4][3] s[4][4] </args>
      <args> s[4][4] d[4][4] s[4][5] </args>
      <args> s[4][5] d[4][5] s[4][6] </args>
      <args> s[4][6] d[4][6] s[4][7] </args>
      <args> s[4][7] d[4][7] s[4][8] </args>
      <args> s[4][8] d[4][8] s[4][9] </args>
      <args> s[4][9] d[4][9] s[4][10] </args>
      <args> s[4][10] d[4][10] s[4][11] </args>
      <args> s[4][11] d[4][11] s[4][12] </args>
      <args> s[4][12] d[4][12] s[4][13] </args>
      <args> s[4][13] d[4][13] s[4][14] </args>
      <args> s[5][0] d[5][0] s[5][1] </args>
      <args> s[5][1] d[5][1] s[5][2] </args>
      <args> s[5][2] d[5][2] s[5][3] </args>
      <args> s[5][3] d[5][3] s[5][4] </args>
      <args> s[5][4] d[5][4] s[5][5] </args>
      <args> s[5][5] d[5][5] s[5][6] </args>
      <args> s[5][6] d[5][6] s[5][7] </args>
      <args> s[5][7] d[5][7] s[5][8] </args>
      <args> s[5][8] d[5][8] s[5][9] </args>
      <args> s[5][9] d[5][9] s[5][10] </args>
      <args> s[5][10] d[5][10] s[5][11] </args>
      <args> s[5][11] d[5][11] s[5][12] </args>
      <args> s[5][12] d[5][12] s[5][13] </args>
      <args> s[5][13] d[5][13] s[5][14] </args>
      <args> s[6][0] d[6][0] s[6][1] </args>
      <args> s[6][1] d[6][1] s[6][2] </args>
      <args> s[6][2] d[6][2] s[6][3] </args>
      <args> s[6][3] d[6][3] s[6][4] </args>
      <args> s[6][4] d[6][4] s[6][5] </args>
      <args> s[6][5] d[6][5] s[6][6] </args>
      <args> s[6][6] d[6][6] s[6][7] </args>
      <args> s[6][7] d[6][7] s[6][8] </args>
      <args> s[6][8] d[6][8] s[6][9] </args>
      <args> s[6][9] d[6][9] s[6][10] </args>
      <args> s[6][10] d[6][10] s[6][11] </args>
      <args> s[6][11] d[6][11] s[6][12] </args>
      <args> s[6][12] d[6][12] s[6][13] </args>
      <args> s[6][13] d[6][13] s[6][14] </args>
      <args> s[7][0] d[7][0] s[7][1] </args>
      <args> s[7][1] d[7][1] s[7][2] </args>
      <args> s[7][2] d[7][2] s[7][3] </args>
      <args> s[7][3] d[7][3] s[7][4] </args>
      <args> s[7][4] d[7][4] s[7][5] </args>
      <args> s[7][5] d[7][5] s[7][6] </args>
      <args> s[7][6] d[7][6] s[7][7] </args>
      <args> s[7][7] d[7][7] s[7][8] </args>
      <args> s[7][8] d[7][8] s[7][9] </args>
      <args> s[7][9] d[7][9] s[7][10] </args>
      <args> s[7][10] d[7][10] s[7][11] </args>
      <args> s[7][11] d[7][11] s[7][12] </args>
      <args> s[7][12] d[7][12] s[7][13] </args>
      <args> s[7][13] d[7][13] s[7][14] </args>
      <args> s[8][0] d[8][0] s[8][1] </args>
      <args> s[8][1] d[8][1] s[8][2] </args>
      <args> s[8][2] d[8][2] s[8][3] </args>
      <args> s[8][3] d[8][3] s[8][4] </args>
      <args> s[8][4] d[8][4] s[8][5] </args>
      <args> s[8][5] d[8][5] s[8][6] </args>
      <args> s[8][6] d[8][6] s[8][7] </args>
      <args> s[8][7] d[8][7] s[8][8] </args>
      <args> s[8][8] d[8][8] s[8][9] </args>
      <args> s[8][9] d[8][9] s[8][10] </args>
      <args> s[8][10] d[8][10] s[8][11] </args>
      <args> s[8][11] d[8][11] s[8][12] </args>
      <args> s[8][12] d[8][12] s[8][13] </args>
      <args> s[8][13] d[8][13] s[8][14] </args>
      <args> s[9][0] d[9][0] s[9][1] </args>
      <args> s[9][1] d[9][1] s[9][2] </args>
      <args> s[9][2] d[9][2] s[9][3] </args>
      <args> s[9][3] d[9][3] s[9][4] </args>
      <args> s[9][4] d[9][4] s[9][5] </args>
      <args> s[9][5] d[9][5] s[9][6] </args>
      <args> s[9][6] d[9][6] s[9][7] </args>
      <args> s[9][7] d[9][7] s[9][8] </args>
      <args> s[9][8] d[9][8] s[9][9] </args>
      <args> s[9][9] d[9][9] s[9][10] </args>
      <args> s[9][10] d[9][10] s[9][11] </args>
      <args> s[9][11] d[9][11] s[9][12] </args>
      <args> s[9][12] d[9][12] s[9][13] </args>
      <args> s[9][13] d[9][13] s[9][14] </args>
      <args> s[10][0] d[10][0] s[10][1] </args>
      <args> s[10][1] d[10][1] s[10][2] </args>
      <args> s[10][2] d[10][2] s[10][3] </args>
      <args> s[10][3] d[10][3] s[10][4] </args>
      <args> s[10][4] d[10][4] s[10][5] </args>
      <args> s[10][5] d[10][5] s[10][6] </args>
      <args> s[10][6] d[10][6] s[10][7] </args>
      <args> s[10][7] d[10][7] s[10][8] </args>
      <args> s[10][8] d[10][8] s[10][9] </args>
      <args> s[10][9] d[10][9] s[10][10] </args>
      <args> s[10][10] d[10][10] s[10][11] </args>
      <args> s[10][11] d[10][11] s[10][12] </args>
      <args> s[10][12] d[10][12] s[10][13] </args>
      <args> s[10][13] d[10][13] s[10][14] </args>
      <args> s[11][0] d[11][0] s[11][1] </args>
      <args> s[11][1] d[11][1] s[11][2] </args>
      <args> s[11][2] d[11][2] s[11][3] </args>
      <args> s[11][3] d[11][3] s[11][4] </args>
      <args> s[11][4] d[11][4] s[11][5] </args>
      <args> s[11][5] d[11][5] s[11][6] </args>
      <args> s[11][6] d[11][6] s[11][7] </args>
      <args> s[11][7] d[11][7] s[11][8] </args>
      <args> s[11][8] d[11][8] s[11][9] </args>
      <args> s[11][9] d[11][9] s[11][10] </args>
      <args> s[11][10] d[11][10] s[11][11] </args>
      <args> s[11][11] d[11][11] s[11][12] </args>
      <args> s[11][12] d[11][12] s[11][13] </args>
      <args> s[11][13] d[11][13] s[11][14] </args>
      <args> s[12][0] d[12][0] s[12][1] </args>
      <args> s[12][1] d[12][1] s[12][2] </args>
      <args> s[12][2] d[12][2] s[12][3] </args>
      <args> s[12][3] d[12][3] s[12][4] </args>
      <args> s[12][4] d[12][4] s[12][5] </args>
      <args> s[12][5] d[12][5] s[12][6] </args>
      <args> s[12][6] d[12][6] s[12][7] </args>
      <args> s[12][7] d[12][7] s[12][8] </args>
      <args> s[12][8] d[12][8] s[12][9] </args>
      <args> s[12][9] d[12][9] s[12][10] </args>
      <args> s[12][10] d[12][10] s[12][11] </args>
      <args> s[12][11] d[12][11] s[12][12] </args>
      <args> s[12][12] d[12][12] s[12][13] </args>
      <args> s[12][13] d[12][13] s[12][14] </args>
      <args> s[13][0] d[13][0] s[13][1] </args>
      <args> s[13][1] d[13][1] s[13][2] </args>
      <args> s[13][2] d[13][2] s[13][3] </args>
      <args> s[13][3] d[13][3] s[13][4] </args>
      <args> s[13][4] d[13][4] s[13][5] </args>
      <args> s[13][5] d[13][5] s[13][6] </args>
      <args> s[13][6] d[13][6] s[13][7] </args>
      <args> s[13][7] d[13][7] s[13][8] </args>
      <args> s[13][8] d[13][8] s[13][9] </args>
      <args> s[13][9] d[13][9] s[13][10] </args>
      <args> s[13][10] d[13][10] s[13][11] </args>
      <args> s[13][11] d[13][11] s[13][12] </args>
      <args> s[13][12] d[13][12] s[13][13] </args>
      <args> s[13][13] d[13][13] s[13][14] </args>
      <args> s[14][0] d[14][0] s[14][1] </args>
      <args> s[14][1] d[14][1] s[14][2] </args>
      <args> s[14][2] d[14][2] s[14][3] </args>
      <args> s[14][3] d[14][3] s[14][4] </args>
      <args> s[14][4] d[14][4] s[14][5] </args>
      <args> s[14][5] d[14][5] s[14][6] </args>
      <args> s[14][6] d[14][6] s[14][7] </args>
      <args> s[14][7] d[14][7] s[14][8] </args>
      <args> s[14][8] d[14][8] s[14][9] </args>
      <args> s[14][9] d[14][9] s[14][10] </args>
      <args> s[14][10] d[14][10] s[14][11] </args>
      <args> s[14][11] d[14][11] s[14][12] </args>
      <args> s[14][12] d[14][12] s[14][13] </args>
      <args> s[14][13] d[14][13] s[14][14] </args>
    </group>
    <block class="channeling">
      <group>
        <element>
          <list> sd[0][] </list>
          <index> %0 </index>
          <value> %1 </value>
        </element>
        <args> w[0][0] s[0][0] </args>
        <args> w[0][1] s[0][1] </args>
        <args> w[0][2] s[0][2] </args>
        <args> w[0][3] s[0][3] </args>
        <args> w[0][4] s[0][4] </args>
        <args> w[0][5] s[0][5] </args>
        <args> w[0][6] s[0][6] </args>
        <args> w[0][7] s[0][7] </args>
        <args> w[0][8] s[0][8] </args>
        <args> w[0][9] s[0][9] </args>
        <args> w[0][10] s[0][10] </args>
        <args> w[0][11] s[0][11] </args>
        <args> w[0][12] s[0][12] </args>
        <args> w[0][13] s[0][13] </args>
        <args> w[0][14] s[0][14] </args>
      </group>
      <group>
        <element>
          <list> sd[1][] </list>
          <index> %0 </index>
          <value> %1 </value>
        </element>
        <args> w[1][0] s[1][0] </args>
        <args> w[1][1] s[1][1] </args>
        <args> w[1][2] s[1][2] </args>
        <args> w[1][3] s[1][3] </args>
        <args> w[1][4] s[1][4] </args>
        <args> w[1][5] s[1][5] </args>
        <args> w[1][6] s[1][6] </args>
        <args> w[1][7] s[1][7] </args>
        <args> w[1][8] s[1][8] </args>
        <args> w[1][9] s[1][9] </args>
        <args> w[1][10] s[1][10] </args>
        <args> w[1][11] s[1][11] </args>
        <args> w[1][12] s[1][12] </args>
        <args> w[1][13] s[1][13] </args>
        <args> w[1][14] s[1][14] </args>
      </group>
      <group>
        <element>
          <list> sd[2][] </list>
          <index> %0 </index>
          <value> %1 </value>
        </element>
        <args> w[2][0] s[2][0] </args>
        <args> w[2][1] s[2][1] </args>
        <args> w[2][2] s[2][2] </args>
        <args> w[2][3] s[2][3] </args>
        <args> w[2][4] s[2][4] </args>
        <args> w[2][5] s[2][5] </args>
        <args> w[2][6] s[2][6] </args>
        <args> w[2][7] s[2][7] </args>
        <args> w[2][8] s[2][8] </args>
        <args> w[2][9] s[2][9] </args>
        <args> w[2][10] s[2][10] </args>
        <args> w[2][11] s[2][11] </args>
        <args> w[2][12] s[2][12] </args>
        <args> w[2][13] s[2][13] </args>
        <args> w[2][14] s[2][14] </args>
      </group>
      <group>
        <element>
          <list> sd[3][] </list>
          <index> %0 </index>
          <value> %1 </value>
        </element>
        <args> w[3][0] s[3][0] </args>
        <args> w[3][1] s[3][1] </args>
        <args> w[3][2] s[3][2] </args>
        <args> w[3][3] s[3][3] </args>
        <args> w[3][4] s[3][4] </args>
        <args> w[3][5] s[3][5] </args>
        <args> w[3][6] s[3][6] </args>
        <args> w[3][7] s[3][7] </args>
        <args> w[3][8] s[3][8] </args>
        <args> w[3][9] s[3][9] </args>
        <args> w[3][10] s[3][10] </args>
        <args> w[3][11] s[3][11] </args>
        <args> w[3][12] s[3][12] </args>
        <args> w[3][13] s[3][13] </args>
        <args> w[3][14] s[3][14] </args>
      </group>
      <group>
        <element>
          <list> sd[4][] </list>
          <index> %0 </index>
          <value> %1 </value>
        </element>
        <args> w[4][0] s[4][0] </args>
        <args> w[4][1] s[4][1] </args>
        <args> w[4][2] s[4][2] </args>
        <args> w[4][3] s[4][3] </args>
        <args> w[4][4] s[4][4] </args>
        <args> w[4][5] s[4][5] </args>
        <args> w[4][6] s[4][6] </args>
        <args> w[4][7] s[4][7] </args>
        <args> w[4][8] s[4][8] </args>
        <args> w[4][9] s[4][9] </args>
        <args> w[4][10] s[4][10] </args>
        <args> w[4][11] s[4][11] </args>
        <args> w[4][12] s[4][12] </args>
        <args> w[4][13] s[4][13] </args>
        <args> w[4][14] s[4][14] </args>
      </group>
      <group>
        <element>
          <list> sd[5][] </list>
          <index> %0 </index>
          <value> %1 </value>
        </element>
        <args> w[5][0] s[5][0] </args>
        <args> w[5][1] s[5][1] </args>
        <args> w[5][2] s[5][2] </args>
        <args> w[5][3] s[5][3] </args>
        <args> w[5][4] s[5][4] </args>
        <args> w[5][5] s[5][5] </args>
        <args> w[5][6] s[5][6] </args>
        <args> w[5][7] s[5][7] </args>
        <args> w[5][8] s[5][8] </args>
        <args> w[5][9] s[5][9] </args>
        <args> w[5][10] s[5][10] </args>
        <args> w[5][11] s[5][11] </args>
        <args> w[5][12] s[5][12] </args>
        <args> w[5][13] s[5][13] </args>
        <args> w[5][14] s[5][14] </args>
      </group>
      <group>
        <element>
          <list> sd[6][] </list>
          <index> %0 </index>
          <value> %1 </value>
        </element>
        <args> w[6][0] s[6][0] </args>
        <args> w[6][1] s[6][1] </args>
        <args> w[6][2] s[6][2] </args>
        <args> w[6][3] s[6][3] </args>
        <args> w[6][4] s[6][4] </args>
        <args> w[6][5] s[6][5] </args>
        <args> w[6][6] s[6][6] </args>
        <args> w[6][7] s[6][7] </args>
        <args> w[6][8] s[6][8] </args>
        <args> w[6][9] s[6][9] </args>
        <args> w[6][10] s[6][10] </args>
        <args> w[6][11] s[6][11] </args>
        <args> w[6][12] s[6][12] </args>
        <args> w[6][13] s[6][13] </args>
        <args> w[6][14] s[6][14] </args>
      </group>
      <group>
        <element>
          <list> sd[7][] </list>
          <index> %0 </index>
          <value> %1 </value>
        </element>
        <args> w[7][0] s[7][0] </args>
        <args> w[7][1] s[7][1] </args>
        <args> w[7][2] s[7][2] </args>
        <args> w[7][3] s[7][3] </args>
        <args> w[7][4] s[7][4] </args>
        <args> w[7][5] s[7][5] </args>
        <args> w[7][6] s[7][6] </args>
        <args> w[7][7] s[7][7] </args>
        <args> w[7][8] s[7][8] </args>
        <args> w[7][9] s[7][9] </args>
        <args> w[7][10] s[7][10] </args>
        <args> w[7][11] s[7][11] </args>
        <args> w[7][12] s[7][12] </args>
        <args> w[7][13] s[7][13] </args>
        <args> w[7][14] s[7][14] </args>
      </group>
      <group>
        <element>
          <list> sd[8][] </list>
          <index> %0 </index>
          <value> %1 </value>
        </element>
        <args> w[8][0] s[8][0] </args>
        <args> w[8][1] s[8][1] </args>
        <args> w[8][2] s[8][2] </args>
        <args> w[8][3] s[8][3] </args>
        <args> w[8][4] s[8][4] </args>
        <args> w[8][5] s[8][5] </args>
        <args> w[8][6] s[8][6] </args>
        <args> w[8][7] s[8][7] </args>
        <args> w[8][8] s[8][8] </args>
        <args> w[8][9] s[8][9] </args>
        <args> w[8][10] s[8][10] </args>
        <args> w[8][11] s[8][11] </args>
        <args> w[8][12] s[8][12] </args>
        <args> w[8][13] s[8][13] </args>
        <args> w[8][14] s[8][14] </args>
      </group>
      <group>
        <element>
          <list> sd[9][] </list>
          <index> %0 </index>
          <value> %1 </value>
        </element>
        <args> w[9][0] s[9][0] </args>
        <args> w[9][1] s[9][1] </args>
        <args> w[9][2] s[9][2] </args>
        <args> w[9][3] s[9][3] </args>
        <args> w[9][4] s[9][4] </args>
        <args> w[9][5] s[9][5] </args>
        <args> w[9][6] s[9][6] </args>
        <args> w[9][7] s[9][7] </args>
        <args> w[9][8] s[9][8] </args>
        <args> w[9][9] s[9][9] </args>
        <args> w[9][10] s[9][10] </args>
        <args> w[9][11] s[9][11] </args>
        <args> w[9][12] s[9][12] </args>
        <args> w[9][13] s[9][13] </args>
        <args> w[9][14] s[9][14] </args>
      </group>
      <group>
        <element>
          <list> sd[10][] </list>
          <index> %0 </index>
          <value> %1 </value>
        </element>
        <args> w[10][0] s[10][0] </args>
        <args> w[10][1] s[10][1] </args>
        <args> w[10][2] s[10][2] </args>
        <args> w[10][3] s[10][3] </args>
        <args> w[10][4] s[10][4] </args>
        <args> w[10][5] s[10][5] </args>
        <args> w[10][6] s[10][6] </args>
        <args> w[10][7] s[10][7] </args>
        <args> w[10][8] s[10][8] </args>
        <args> w[10][9] s[10][9] </args>
        <args> w[10][10] s[10][10] </args>
        <args> w[10][11] s[10][11] </args>
        <args> w[10][12] s[10][12] </args>
        <args> w[10][13] s[10][13] </args>
        <args> w[10][14] s[10][14] </args>
      </group>
      <group>
        <element>
          <list> sd[11][] </list>
          <index> %0 </index>
          <value> %1 </value>
        </element>
        <args> w[11][0] s[11][0] </args>
        <args> w[11][1] s[11][1] </args>
        <args> w[11][2] s[11][2] </args>
        <args> w[11][3] s[11][3] </args>
        <args> w[11][4] s[11][4] </args>
        <args> w[11][5] s[11][5] </args>
        <args> w[11][6] s[11][6] </args>
        <args> w[11][7] s[11][7] </args>
        <args> w[11][8] s[11][8] </args>
        <args> w[11][9] s[11][9] </args>
        <args> w[11][10] s[11][10] </args>
        <args> w[11][11] s[11][11] </args>
        <args> w[11][12] s[11][12] </args>
        <args> w[11][13] s[11][13] </args>
        <args> w[11][14] s[11][14] </args>
      </group>
      <group>
        <element>
          <list> sd[12][] </list>
          <index> %0 </index>
          <value> %1 </value>
        </element>
        <args> w[12][0] s[12][0] </args>
        <args> w[12][1] s[12][1] </args>
        <args> w[12][2] s[12][2] </args>
        <args> w[12][3] s[12][3] </args>
        <args> w[12][4] s[12][4] </args>
        <args> w[12][5] s[12][5] </args>
        <args> w[12][6] s[12][6] </args>
        <args> w[12][7] s[12][7] </args>
        <args> w[12][8] s[12][8] </args>
        <args> w[12][9] s[12][9] </args>
        <args> w[12][10] s[12][10] </args>
        <args> w[12][11] s[12][11] </args>
        <args> w[12][12] s[12][12] </args>
        <args> w[12][13] s[12][13] </args>
        <args> w[12][14] s[12][14] </args>
      </group>
      <group>
        <element>
          <list> sd[13][] </list>
          <index> %0 </index>
          <value> %1 </value>
        </element>
        <args> w[13][0] s[13][0] </args>
        <args> w[13][1] s[13][1] </args>
        <args> w[13][2] s[13][2] </args>
        <args> w[13][3] s[13][3] </args>
        <args> w[13][4] s[13][4] </args>
        <args> w[13][5] s[13][5] </args>
        <args> w[13][6] s[13][6] </args>
        <args> w[13][7] s[13][7] </args>
        <args> w[13][8] s[13][8] </args>
        <args> w[13][9] s[13][9] </args>
        <args> w[13][10] s[13][10] </args>
        <args> w[13][11] s[13][11] </args>
        <args> w[13][12] s[13][12] </args>
        <args> w[13][13] s[13][13] </args>
        <args> w[13][14] s[13][14] </args>
      </group>
      <group>
        <element>
          <list> sd[14][] </list>
          <index> %0 </index>
          <value> %1 </value>
        </element>
        <args> w[14][0] s[14][0] </args>
        <args> w[14][1] s[14][1] </args>
        <args> w[14][2] s[14][2] </args>
        <args> w[14][3] s[14][3] </args>
        <args> w[14][4] s[14][4] </args>
        <args> w[14][5] s[14][5] </args>
        <args> w[14][6] s[14][6] </args>
        <args> w[14][7] s[14][7] </args>
        <args> w[14][8] s[14][8] </args>
        <args> w[14][9] s[14][9] </args>
        <args> w[14][10] s[14][10] </args>
        <args> w[14][11] s[14][11] </args>
        <args> w[14][12] s[14][12] </args>
        <args> w[14][13] s[14][13] </args>
        <args> w[14][14] s[14][14] </args>
      </group>
    </block>
    <block>
      <noOverlap>
        <origins> sd[][0] </origins>
        <lengths> 53 68 63 62 48 87 73 24 79 3 57 28 22 32 68 </lengths>
      </noOverlap>
      <noOverlap>
        <origins> sd[][1] </origins>
        <lengths> 59 71 1 88 99 76 51 45 51 47 35 92 26 96 46 </lengths>
      </noOverlap>
      <noOverlap>
        <origins> sd[][2] </origins>
        <lengths> 68 96 59 4 7 83 3 74 83 75 38 18 61 6 45 </lengths>
      </noOverlap>
      <noOverlap>
        <origins> sd[][3] </origins>
        <lengths> 53 7 88 52 8 56 59 70 51 98 25 81 63 92 6 </lengths>
      </noOverlap>
      <noOverlap>
        <origins> sd[][4] </origins>
        <lengths> 34 24 86 33 83 61 24 49 99 87 30 3 37 3 8 </lengths>
      </noOverlap>
      <noOverlap>
        <origins> sd[][5] </origins>
        <lengths> 21 49 58 61 14 21 49 6 12 33 30 82 20 40 53 </lengths>
      </noOverlap>
      <noOverlap>
        <origins> sd[][6] </origins>
        <lengths> 52 69 76 57 85 11 35 62 66 10 82 85 43 12 14 </lengths>
      </noOverlap>
      <noOverlap>
        <origins> sd[][7] </origins>
        <lengths> 9 92 55 39 30 62 95 84 42 70 19 8 92 23 60 </lengths>
      </noOverlap>
      <noOverlap>
        <origins> sd[][8] </origins>
        <lengths> 12 50 76 16 79 42 17 5 76 25 4 58 20 58 99 </lengths>
      </noOverlap>
      <noOverlap>
        <origins> sd[][9] </origins>
        <lengths> 30 31 77 46 76 1 17 6 22 30 48 95 59 33 61 </lengths>
      </noOverlap>
      <noOverlap>
        <origins> sd[][10] </origins>
        <lengths> 46 29 88 63 30 31 81 99 34 61 95 62 26 61 28 </lengths>
      </noOverlap>
      <noOverlap>
        <origins> sd[][11] </origins>
        <lengths> 82 99 55 51 8 15 58 50 11 85 28 24 28 24 2 </lengths>
      </noOverlap>
      <noOverlap>
        <origins> sd[][12] </origins>
        <lengths> 54 63 8 41 83 60 94 13 33 33 70 55 27 77 82 </lengths>
      </noOverlap>
      <noOverlap>
        <origins> sd[][13] </origins>
        <lengths> 3 39 74 21 56 57 36 32 30 21 92 84 28 35 63 </lengths>
      </noOverlap>
      <noOverlap>
        <origins> sd[][14] </origins>
        <lengths> 70 3 29 57 75 32 18 50 41 98 41 85 25 57 95 </lengths>
      </noOverlap>
    </block>
    <group class="redundantConstraints">
      <intension> ge(%0,%1) </intension>
      <args> e[0] 646 </args>
      <args> e[1] 790 </args>
      <args> e[2] 893 </args>
      <args> e[3] 691 </args>
      <args> e[4] 781 </args>
      <args> e[5] 695 </args>
      <args> e[6] 710 </args>
      <args> e[7] 669 </args>
      <args> e[8] 730 </args>
      <args> e[9] 776 </args>
      <args> e[10] 694 </args>
      <args> e[11] 860 </args>
      <args> e[12] 577 </args>
      <args> e[13] 649 </args>
      <args> e[14] 730 </args>
    </group>
  </constraints>
  <objectives>
    <minimize type="maximum"> e[] </minimize>
  </objectives>
</instance>
